c ind 12 13 17 26 27 29 3 31 33 36 0
c ind 43 8 9 0
p cnf 53 148
-1 2 0
-1 4 0
-10 -11 0
-11 -12 13 0
-11 -13 12 0
-14 -15 16 0
-14 15 18 0
-15 -12 3 0
-15 -3 12 0
-16 -17 3 0
-16 -3 17 0
-18 -19 21 0
-18 19 42 0
-19 20 0
-19 6 0
-2 3 0
-20 -3 8 0
-20 -8 3 0
-21 -22 34 0
-21 22 44 0
-22 23 0
-22 32 0
-23 24 0
-23 30 0
-24 25 0
-24 28 0
-25 -26 27 0
-25 -27 26 0
-27 0
-28 -27 29 0
-28 -29 27 0
-30 -27 31 0
-30 -31 27 0
-32 -27 33 0
-32 -33 27 0
-34 -35 37 0
-34 35 42 0
-35 -3 36 0
-35 -36 3 0
-37 38 0
-37 41 0
-38 39 0
-38 41 0
-39 40 0
-39 41 0
-4 -5 14 0
-4 5 42 0
-40 -17 27 0
-40 -27 17 0
-41 -27 27 0
-42 -17 43 0
-42 -43 17 0
-44 -45 37 0
-44 45 49 0
-45 32 0
-45 46 0
-46 30 0
-46 47 0
-47 28 0
-47 48 0
-48 -26 3 0
-48 -3 26 0
-49 -50 16 0
-49 50 42 0
-5 6 10 0
-50 32 0
-50 51 0
-51 30 0
-51 52 0
-52 25 0
-52 53 0
-53 -29 3 0
-53 -3 29 0
-6 -7 0
-7 -8 9 0
-7 -9 8 0
1 -2 -4 0
1 0
10 11 0
11 -12 -13 0
11 12 13 0
14 -15 -16 0
14 -16 -18 0
14 15 -18 0
15 -12 -3 0
15 12 3 0
16 -17 -3 0
16 17 3 0
18 -19 -21 0
18 -21 -42 0
18 19 -42 0
19 -6 -20 0
2 -3 -3 0
20 -8 -3 0
20 8 3 0
21 -22 -34 0
21 -34 -44 0
21 22 -44 0
22 -23 -32 0
23 -24 -30 0
24 -25 -28 0
25 -26 -27 0
25 26 27 0
28 -29 -27 0
28 29 27 0
3 0
30 -31 -27 0
30 31 27 0
32 -33 -27 0
32 33 27 0
34 -35 -37 0
34 -37 -42 0
34 35 -42 0
35 -36 -3 0
35 36 3 0
37 -38 -41 0
38 -39 -41 0
39 -40 -41 0
4 -14 -42 0
4 -5 -14 0
4 5 -42 0
40 -17 -27 0
40 17 27 0
41 -27 -27 0
41 27 27 0
42 -17 -43 0
42 17 43 0
44 -37 -49 0
44 -45 -37 0
44 45 -49 0
45 -46 -32 0
46 -47 -30 0
47 -48 -28 0
48 -26 -3 0
48 26 3 0
49 -16 -42 0
49 -50 -16 0
49 50 -42 0
5 -10 0
5 -6 0
50 -51 -32 0
51 -52 -30 0
52 -25 -53 0
53 -29 -3 0
53 29 3 0
6 7 0
7 -8 -9 0
7 8 9 0
